language ESSENCE' 1.0

letting n_courses be 135
letting n_periods be 26
letting prerequisite_RelationAsSet_Explicit_1 be
        [1, 1, 1, 1, 1, 1, 2, 2, 2, 2, 2, 2, 3, 3, 3, 3, 4, 4, 4, 4, 4, 4, 4, 5, 5, 5, 5, 5, 5, 5, 6, 6, 7, 7, 7, 8, 8,
         9, 9, 10, 10, 10, 11, 11, 11, 11, 12, 12, 12, 12, 12, 12, 13, 13, 13, 13, 13, 13, 14, 14, 14, 14, 15, 15, 16,
         16, 16, 16, 16, 16, 17, 17, 17, 17, 17, 17, 17, 17, 17, 18, 18, 18, 18, 19, 19, 19, 20, 20, 20, 21, 22, 22, 22,
         22, 22, 23, 23, 23, 23, 23, 23, 23, 23, 24, 24, 24, 24, 25, 25, 25, 25, 25, 25, 25, 25, 26, 26, 26, 26, 26, 26,
         27, 27, 27, 27, 28, 28, 28, 28, 28, 28, 29, 29, 29, 29, 29, 29, 30, 30, 30, 30, 30, 30, 30, 30, 30, 31, 31, 31,
         31, 31, 31, 31, 32, 32, 33, 33, 33, 34, 34, 34, 34, 34, 34, 35, 35, 35, 35, 35, 35, 36, 36, 36, 37, 37, 37, 37,
         37, 38, 38, 38, 38, 38, 38, 39, 39, 39, 39, 39, 39, 39, 40, 40, 40, 40, 40, 40, 41, 41, 41, 41, 42, 42, 42, 42,
         42, 42, 43, 43, 43, 43, 43, 44, 44, 44, 44, 44, 44, 44, 45, 45, 45, 45, 45, 45, 45, 46, 47, 47, 48, 48, 48, 48,
         48, 49, 49, 49, 50, 50, 50, 50, 51, 51, 51, 51, 51, 52, 52, 52, 52, 52, 52, 53, 53, 53, 53, 53, 54, 54, 55, 55,
         55, 55, 56, 56, 56, 57, 57, 57, 57, 57, 58, 58, 58, 59, 59, 59, 59, 60, 60, 60, 61, 61, 62, 62, 63, 63, 63, 63,
         64, 64, 64, 64, 65, 66, 66, 66, 66, 66, 67, 67, 67, 68, 68, 68, 68, 68, 68, 68, 68, 68, 69, 69, 69, 69, 70, 70,
         70, 70, 71, 71, 71, 71, 72, 72, 72, 72, 73, 73, 73, 74, 74, 74, 74, 74, 75, 75, 75, 75, 76, 76, 76, 76, 77, 77,
         77, 77, 78, 78, 78, 78, 78, 79, 79, 79, 79, 81, 81, 81, 81, 82, 82, 82, 82, 82, 83, 83, 83, 83, 84, 84, 85, 85,
         86, 86, 86, 86, 87, 87, 87, 87, 87, 88, 88, 88, 88, 89, 89, 89, 89, 90, 90, 91, 91, 92, 92, 92, 92, 92, 92, 93,
         93, 93, 93, 94, 95, 95, 95, 96, 96, 96, 97, 97, 97, 98, 98, 99, 99, 99, 100, 100, 101, 101, 101, 102, 103, 104,
         104, 104, 104, 104, 105, 105, 105, 105;
             int(1..435)]
letting prerequisite_RelationAsSet_Explicit_2 be
        [46, 49, 57, 76, 92, 105, 51, 62, 66, 83, 85, 96, 65, 70, 88, 100, 49, 51, 74, 84, 95, 98, 102, 60, 78, 81, 87,
         95, 103, 105, 58, 75, 47, 52, 87, 69, 77, 52, 70, 47, 71, 82, 66, 68, 72, 80, 47, 53, 58, 66, 71, 104, 50, 54,
         59, 67, 78, 91, 49, 69, 80, 90, 97, 99, 50, 60, 66, 68, 104, 105, 46, 50, 61, 66, 85, 92, 99, 102, 104, 75, 86,
         93, 96, 47, 48, 52, 76, 93, 101, 96, 55, 72, 73, 76, 86, 49, 54, 74, 79, 84, 85, 99, 104, 48, 60, 86, 105, 71,
         78, 87, 89, 92, 94, 102, 104, 54, 64, 66, 80, 88, 100, 48, 65, 75, 84, 47, 65, 70, 71, 73, 105, 56, 60, 68, 71,
         79, 91, 51, 52, 56, 63, 65, 80, 82, 87, 95, 54, 64, 67, 69, 73, 75, 89, 52, 91, 50, 59, 77, 58, 60, 67, 81, 90,
         104, 63, 81, 96, 97, 100, 105, 56, 61, 74, 53, 57, 89, 92, 97, 70, 71, 88, 90, 91, 100, 47, 48, 51, 55, 65, 87,
         90, 57, 58, 59, 62, 70, 72, 62, 83, 91, 105, 48, 74, 78, 79, 90, 94, 55, 67, 81, 88, 104, 52, 55, 60, 61, 73,
         88, 105, 48, 55, 86, 87, 99, 100, 103, 106, 116, 124, 118, 120, 123, 130, 133, 109, 118, 132, 114, 119, 131,
         135, 108, 111, 121, 126, 128, 109, 112, 116, 127, 128, 133, 113, 116, 122, 129, 135, 116, 124, 112, 113, 120,
         135, 106, 115, 125, 107, 114, 118, 119, 128, 111, 114, 132, 113, 123, 128, 131, 120, 124, 127, 122, 125, 125,
         126, 107, 109, 130, 134, 107, 115, 129, 131, 117, 110, 112, 115, 124, 134, 107, 112, 126, 107, 109, 115, 116,
         117, 118, 119, 127, 130, 116, 123, 124, 135, 114, 117, 129, 134, 108, 113, 130, 134, 116, 118, 123, 129, 107,
         129, 130, 117, 118, 122, 125, 133, 106, 110, 118, 126, 107, 116, 126, 135, 116, 122, 126, 134, 106, 112, 117,
         119, 120, 112, 118, 121, 132, 115, 124, 125, 130, 106, 126, 128, 134, 135, 117, 118, 124, 128, 117, 122, 119,
         133, 108, 117, 119, 122, 106, 118, 120, 129, 130, 106, 113, 115, 123, 108, 112, 122, 131, 125, 126, 110, 116,
         113, 118, 130, 132, 134, 135, 107, 112, 113, 122, 134, 115, 123, 129, 107, 115, 130, 111, 114, 127, 107, 129,
         110, 119, 134, 106, 126, 108, 109, 134, 121, 124, 108, 119, 124, 126, 127, 110, 115, 124, 131;
             int(1..435)]
letting course_load_Function1D be
        [6, 2, 4, 3, 5, 3, 5, 2, 4, 4, 7, 6, 5, 4, 2, 2, 6, 4, 3, 5, 7, 5, 4, 5, 7, 3, 3, 6, 3, 4, 3, 7, 2, 2, 5, 7, 3,
         5, 3, 6, 6, 5, 7, 5, 6, 2, 3, 3, 4, 4, 3, 5, 5, 6, 2, 8, 7, 8, 4, 7, 5, 6, 3, 2, 8, 6, 8, 3, 4, 6, 2, 6, 5, 3,
         6, 3, 6, 6, 2, 6, 4, 6, 3, 7, 8, 4, 2, 4, 6, 4, 7, 8, 2, 7, 8, 6, 7, 3, 4, 7, 2, 3, 4, 3, 4, 4, 3, 7, 7, 6, 7,
         2, 2, 6, 3, 5, 4, 8, 5, 7, 7, 3, 7, 8, 2, 5, 3, 3, 7, 8, 7, 2, 7, 8, 7;
             int(1..135)]
letting load_per_period_ub be 25
letting load_per_period_lb be 9
letting courses_per_period_ub be 9
letting courses_per_period_lb be 5
letting fin1 be 435
letting fin2 be 135
letting fin3 be 8
